p cnf 34 106
-3 1 0
-3 -2 0
-1 2 3 0
-4 -1 -5 0
4 1 -5 0
-4 1 5 0
4 -1 5 0
-6 3 0
-6 5 0
-3 -5 6 0
-9 8 0
-9 8 0
-8 9 0
-7 -9 -10 0
7 9 -10 0
-7 9 10 0
7 -9 10 0
-11 -6 0
-11 10 0
6 -10 11 0
13 1 0
13 12 0
-1 -12 -13 0
-14 13 0
-14 10 0
-13 -10 14 0
15 -11 0
15 14 0
11 -14 -15 0
16 -3 0
16 -8 0
3 8 -16 0
-13 1 -17 0
13 -1 -17 0
-13 -1 17 0
13 1 17 0
18 -7 -19 0
-18 7 -19 0
18 7 19 0
-18 -7 19 0
-20 -19 0
-20 -9 0
19 9 20 0
-21 -22 -23 0
21 22 -23 0
-21 22 23 0
21 -22 23 0
24 -20 0
24 -23 0
20 23 -24 0
17 -24 -25 0
-17 24 -25 0
17 24 25 0
-17 -24 25 0
-13 1 -26 0
13 -1 -26 0
-13 -1 26 0
13 1 26 0
-25 26 -27 0
25 -26 -27 0
-25 -26 27 0
25 26 27 0
-16 -27 -28 0
16 27 -28 0
-16 27 28 0
16 -27 28 0
29 15 0
29 28 0
-15 -28 -29 0
-30 -3 0
-30 1 0
3 -1 30 0
31 -29 0
31 -30 0
29 30 -31 0
-33 7 0
-33 -32 0
-7 32 33 0
34 -31 0
34 -33 0
31 33 -34 0
-2 -5 17 0
-22 -9 1 -17 0
-14 9 -12 -13 0
-16 -25 31 6 -29 0
-33 26 -25 -6 -16 -8 0
9 -19 4 22 0
-7 1 17 0
30 -6 -20 -10 -24 0
-10 -17 -22 -25 28 0
-29 -15 5 7 0
19 -33 12 -25 -20 0
-14 -26 -25 0
-9 23 25 33 -8 0
5 -1 0
13 -2 0
23 -26 5 -20 0
2 34 21 0
-10 11 23 -34 -13 0
-33 24 11 0
21 1 31 0
18 -7 16 33 12 31 0
-5 -23 13 0
-3 4 -21 0
18 -34 -22 -21 23 0
34 0
